LibMLKEM/why3-cvc5/mlkem.adb_1656_73_index_check_1.smt2
;; produced by cvc5.drv ;;
(set-logic ALL)
(set-info :smt-lib-version 2.6)
;;; generated by SMT-LIB2 driver
;;; SMT-LIB2 driver: bit-vectors, common part
;;; SMT-LIB2: integer arithmetic
(define-fun __cdiv ((x Int) (y Int)) Int (ite (>= x 0) (div x y) (- (div (- x) y))))
(define-fun __cmod ((x Int) (y Int)) Int (ite (>= x 0) (mod x y) (- (mod (- x) y))))
;; "pow2"
(declare-fun pow2 (Int) Int)

(declare-const two_power_size_minus_one Int)

;; "two_power_size_minus_one_val"
(assert (= two_power_size_minus_one (pow2 (- 16 1))))

;; "min"
(define-fun min ((x Int) (y Int)) Int
  (ite (<= x y) x y))

;; "max"
(define-fun max ((x Int) (y Int)) Int
  (ite (<= x y) y x))

;; "Min_r"
(assert (forall ((x Int) (y Int)) (=> (<= y x) (= (min x y) y))))

;; "Max_l"
(assert (forall ((x Int) (y Int)) (=> (<= y x) (= (max x y) x))))

;; "Min_comm"
(assert (forall ((x Int) (y Int)) (= (min x y) (min y x))))

;; "Max_comm"
(assert (forall ((x Int) (y Int)) (= (max x y) (max y x))))

;; "Min_assoc"
(assert
  (forall ((x Int) (y Int) (z Int)) (= (min (min x y) z) (min x (min y z)))))

;; "Max_assoc"
(assert
  (forall ((x Int) (y Int) (z Int)) (= (max (max x y) z) (max x (max y z)))))

(declare-sort t 0)

;; "in_range"
(define-fun in_range ((x (_ BitVec 16))) Bool
  (and (bvule #x0000 x) (bvule x #x0D00)))

;; "to_rep"
(declare-fun to_rep (t) (_ BitVec 16))

;; "of_rep"
(declare-fun of_rep ((_ BitVec 16)) t)

;; "inversion_axiom"
(assert
  (forall ((x t)) (! (= (of_rep (to_rep x)) x) :pattern ((to_rep x)) )))

;; "range_axiom"
(assert (forall ((x t)) (! (in_range (to_rep x)) :pattern ((to_rep x)) )))

;; "coerce_axiom"
(assert
  (forall ((x (_ BitVec 16)))
    (! (let ((y (bvurem x #x0D01)))
         (=> (in_range y) (= (to_rep (of_rep x)) y))) :pattern ((to_rep
                                                                  (of_rep x))) )))

(declare-sort map1 0)

;; "has_bounds"
(declare-fun has_bounds (map1
  Int
  Int) Bool)

;; "get"
(declare-fun get (map1
  Int) t)

(declare-datatypes ((t__init_wrapper 0))
  (((t__init_wrapperqtmk (rec__value t)(us_attr__init Bool)))))

(declare-sort map2 0)

;; "has_bounds"
(declare-fun has_bounds1 (map2
  Int
  Int) Bool)

;; "get"
(declare-fun get1 (map2
  Int) t__init_wrapper)

;; "multiplyntts"
(declare-fun multiplyntts (map1
  map1) map1)

;; "multiplyntts__function_guard"
(declare-fun multiplyntts__function_guard (map1
  map1
  map1) Bool)

(declare-sort map3 0)

;; "has_bounds"
(declare-fun has_bounds2 (map3
  Int
  Int) Bool)

;; "get"
(declare-fun get2 (map3
  Int) map1)

(declare-sort map4 0)

;; "has_bounds"
(declare-fun has_bounds3 (map4
  Int
  Int) Bool)

;; "get"
(declare-fun get3 (map4
  Int) map3)

(declare-const left map4)

(declare-const right map3)

(declare-sort map5 0)

;; "has_bounds"
(declare-fun has_bounds4 (map5
  Int
  Int) Bool)

;; "get"
(declare-fun get4 (map5
  Int) map2)

;; "set"
(declare-fun set (map5
  Int
  map2) map5)

;; "set_eq"
(assert
  (forall ((a map5) (i Int) (v map2))
    (! (= (get4 (set a i v) i) v) :pattern ((set a i v)) )))

;; "set_neq"
(assert
  (forall ((a map5) (i Int) (v map2))
    (! (forall ((j Int))
         (! (=> (not (= i j)) (= (get4 (set a i v) j) (get4 a j))) :pattern (
         (get4
           a
           j)) :pattern ((get4 (set a i v) j)) )) :pattern ((set a i v)) )))

;; "set_has_bounds"
(assert
  (forall ((a map5) (i Int) (f Int) (l Int) (v map2))
    (! (=>
         (and (<= f i) (<= i l))
         (=> (has_bounds4 a f l) (has_bounds4 (set a i v) f l))) :pattern (
    (has_bounds4
      (set a i v)
      f
      l)) )))

;; "convert"
(declare-fun convert (map1) map2)

;; "convert__def"
(assert
  (forall ((a map1))
    (let ((b (convert a)))
      (forall ((temp___199 Int))
        (and
          (= (us_attr__init
               (t__init_wrapperqtmk
                 (of_rep (to_rep (get a temp___199)))
                 true)) (us_attr__init (get1 b temp___199)))
          (= (to_rep
               (rec__value
                 (t__init_wrapperqtmk
                   (of_rep (to_rep (get a temp___199)))
                   true))) (to_rep (rec__value (get1 b temp___199)))))))))

;; "dynamic_invariant"
(define-fun dynamic_invariant ((temp___expr_1123 map3) (temp___is_init_1119 Bool) (temp___skip_constant_1120 Bool) (temp___do_toplevel_1121 Bool) (temp___do_typ_inv_1122 Bool)) Bool
  (and
    (has_bounds2 temp___expr_1123 0 2)
    (forall ((temp___1124 Int))
      (=>
        (and (<= 0 temp___1124) (<= temp___1124 2))
        (has_bounds (get2 temp___expr_1123 temp___1124) 0 255)))))

;; "dynamic_invariant_r"
(define-fun dynamic_invariant_r ((temp___expr_1130 map5) (temp___is_init_1126 Bool) (temp___skip_constant_1127 Bool) (temp___do_toplevel_1128 Bool) (temp___do_typ_inv_1129 Bool)) Bool
  (and
    (has_bounds4 temp___expr_1130 0 2)
    (forall ((temp___1131 Int))
      (=>
        (and (<= 0 temp___1131) (<= temp___1131 2))
        (has_bounds1 (get4 temp___expr_1130 temp___1131) 0 255)))))

;; "dynamic_invariant"
(define-fun dynamic_invariant1 ((temp___expr_1150 map4) (temp___is_init_1146 Bool) (temp___skip_constant_1147 Bool) (temp___do_toplevel_1148 Bool) (temp___do_typ_inv_1149 Bool)) Bool
  (and
    (has_bounds3 temp___expr_1150 0 2)
    (forall ((temp___1151 Int))
      (=>
        (and (<= 0 temp___1151) (<= temp___1151 2))
        (and
          (has_bounds2 (get3 temp___expr_1150 temp___1151) 0 2)
          (forall ((temp___1152 Int))
            (=>
              (and (<= 0 temp___1152) (<= temp___1152 2))
              (has_bounds
                (get2 (get3 temp___expr_1150 temp___1151) temp___1152)
                0
                255))))))))

;; Goal "def'vc"
;; File "mlkem.adb", line 1645, characters 0-0
(assert
  (not
  (forall ((r map5))
    (=>
      (dynamic_invariant1 left true false true true)
      (=>
        (dynamic_invariant right true false true true)
        (=>
          (dynamic_invariant_r r false false true true)
          (forall ((i Int))
            (=>
              (= i 0)
              (=>
                (= (and (ite (<= 0 i) true false) (ite (<= i 2) true false)) true)
                (let ((o (get2 right 0)))
                  (let ((o1 (get2 (get3 left i) 0)))
                    (let ((temp___5135 (multiplyntts o1 o)))
                      (=>
                        (and
                          (multiplyntts__function_guard temp___5135 o1 o)
                          (has_bounds temp___5135 0 255))
                        (forall ((r1 map5))
                          (=>
                            (= r1 (set r i (convert temp___5135)))
                            (forall ((usf Int))
                              (=>
                                (= (and (ite (<= 0 usf) true false) (ite (<= usf i)
                                                                    true
                                                                    false)) true)
                                (and (<= 0 usf) (<= usf 2)))))))))))))))))))

(check-sat)
